c A SAT instance generated from a 3-CNF formula that had 22 clauses and 11 variables
p cnf 11 22
5 6 -8 0
-11 -9 -1 0
-1 -10 7 0
5 -4 6 0
-10 1 -5 0
-5 7 2 0
6 9 -4 0
-6 10 -11 0
5 7 6 0
7 -6 3 0
-8 4 11 0
-11 -8 5 0
-9 4 -7 0
3 10 -6 0
-10 -3 -4 0
-3 -8 6 0
-8 -3 -10 0
4 -3 10 0
-11 -9 -8 0
-2 5 -4 0
-10 6 -5 0
-4 11 -6 0
